benchmarks/bfuzz0/2145812076117501277148755132371821789.smt2
(set-logic QF_FP)
(declare-const x0 (_ FloatingPoint 11 53))
(declare-const x1 (_ FloatingPoint 11 53))
(declare-const x2 (_ FloatingPoint 11 53))
(declare-const x3 (_ FloatingPoint 11 53))
(declare-const x4 (_ FloatingPoint 11 53))
(declare-const x5 (_ FloatingPoint 11 53))
(declare-const x6 (_ FloatingPoint 11 53))
(declare-const x7 (_ FloatingPoint 11 53))
(declare-const x8 (_ FloatingPoint 11 53))
(declare-const x9 (_ FloatingPoint 11 53))
(declare-const x10 (_ FloatingPoint 11 53))
(declare-const x11 (_ FloatingPoint 11 53))
(declare-const x12 (_ FloatingPoint 11 53))
(declare-const x13 (_ FloatingPoint 11 53))
(declare-const x14 (_ FloatingPoint 11 53))
(declare-const x15 (_ FloatingPoint 11 53))
(declare-const x16 (_ FloatingPoint 11 53))
(declare-const x17 (_ FloatingPoint 11 53))
(declare-const x18 (_ FloatingPoint 11 53))
(assert (fp.lt (fp.div RNE x17 x2) (fp.div RNE x10 x3)))
(assert (fp.leq (fp.add RNE x5 x18) (fp.add RNE x6 x17)))
(assert (fp.geq (fp.mul RNE x1 x2) (fp.neg x13)))
(assert (fp.eq (fp.mul RNE x7 x9) (fp.neg x7)))
(assert (fp.eq (fp.sub RNE x0 x8) (fp.add RNE x16 x9)))
(assert (fp.eq (fp.sub RNE x6 x18) (fp.div RNE x14 x4)))
(assert (fp.leq (fp.add RNE x1 x12) (fp.mul RNE x17 x8)))
(assert (fp.eq (fp.div RNE x14 x0) (fp.sub RNE x10 x16)))
(assert (fp.geq (fp.neg x13) (fp.mul RNE x10 x9)))
(assert (fp.eq (fp.add RNE x2 x4) (fp.add RNE x6 x12)))
(assert (fp.gt (fp.neg x10) (fp.add RNE x15 x15)))
(assert (fp.eq (fp.sub RNE x3 x5) (fp.sub RNE x5 x4)))
(check-sat)
