db/data/2145812076117501277148755132371821789.z3.out
-------------------
2500.100944537
